param n := 120;
param c := 1500
param : V : p w :=
   0	  52	  42
   1	 108	  98
   2	  37	  27
   3	  31	  21
   4	  81	  71
   5	  81	  71
   6	  88	  78
   7	  86	  76
   8	  67	  57
   9	  34	  24
  10	 101	  91
  11	  94	  84
  12	  45	  35
  13	  35	  25
  14	  87	  77
  15	 106	  96
  16	 107	  97
  17	  99	  89
  18	  40	  30
  19	  96	  86
  20	  91	  81
  21	  49	  39
  22	  85	  75
  23	  76	  66
  24	  95	  85
  25	  46	  36
  26	  70	  60
  27	  66	  56
  28	  60	  50
  29	  85	  75
  30	  85	  75
  31	  47	  37
  32	  97	  87
  33	 105	  95
  34	  31	  21
  35	 109	  99
  36	  52	  42
  37	  67	  57
  38	  41	  31
  39	  47	  37
  40	  52	  42
  41	  50	  40
  42	  79	  69
  43	 101	  91
  44	  55	  45
  45	 107	  97
  46	  94	  84
  47	 100	  90
  48	  62	  52
  49	  53	  43
  50	  78	  68
  51	  63	  53
  52	  47	  37
  53	  75	  65
  54	  89	  79
  55	  83	  73
  56	 102	  92
  57	  97	  87
  58	  30	  20
  59	  30	  20
  60	  83	  73
  61	  52	  42
  62	  62	  52
  63	  30	  20
  64	  34	  24
  65	  86	  76
  66	  81	  71
  67	  82	  72
  68	  31	  21
  69	  31	  21
  70	  92	  82
  71	 102	  92
  72	  88	  78
  73	  97	  87
  74	  60	  50
  75	  51	  41
  76	  41	  31
  77	  83	  73
  78	  99	  89
  79	  69	  59
  80	  98	  88
  81	  50	  40
  82	  81	  71
  83	  79	  69
  84	  55	  45
  85	  67	  57
  86	  59	  49
  87	  78	  68
  88	  94	  84
  89	  42	  32
  90	  79	  69
  91	  87	  77
  92	 102	  92
  93	 108	  98
  94	  67	  57
  95	  49	  39
  96	  42	  32
  97	  33	  23
  98	 109	  99
  99	 101	  91
 100	  58	  48
 101	  31	  21
 102	  80	  70
 103	  53	  43
 104	  83	  73
 105	  79	  69
 106	  75	  65
 107	  67	  57
 108	  77	  67
 109	  38	  28
 110	  94	  84
 111	  52	  42
 112	  71	  61
 113	 102	  92
 114	  92	  82
 115	  44	  34
 116	  84	  74
 117	  65	  55
 118	  70	  60
 119	  79	  69
;

set E :=
   0	  13
   0	  14
   0	  25
   0	  31
   0	  35
   0	  52
   0	  66
   0	  89
   0	 108
   1	  14
   1	  24
   1	  27
   1	  45
   1	  56
   1	  77
   1	  83
   1	  88
   1	 100
   1	 107
   1	 111
   1	 112
   1	 114
   1	 119
   2	   6
   2	   7
   2	  15
   2	  20
   2	  21
   2	  24
   2	  34
   2	  41
   2	  59
   2	  61
   2	  63
   2	  66
   2	  80
   2	  97
   2	  99
   2	 101
   2	 102
   2	 109
   2	 114
   3	   8
   3	  18
   3	  31
   3	  49
   3	  52
   3	  53
   3	  80
   3	  89
   3	 105
   3	 112
   3	 118
   4	  11
   4	  18
   4	  21
   4	  37
   4	  38
   4	  53
   4	  56
   4	  78
   4	  96
   4	 102
   4	 103
   4	 113
   4	 114
   4	 119
   5	  11
   5	  13
   5	  14
   5	  29
   5	  30
   5	  33
   5	  41
   5	  56
   5	  62
   5	  79
   5	  82
   5	 119
   6	  22
   6	  30
   6	  38
   6	  64
   6	  72
   6	  78
   6	  79
   6	  98
   6	  99
   6	 107
   6	 109
   6	 113
   6	 118
   7	   8
   7	  11
   7	  19
   7	  25
   7	  38
   7	  39
   7	  53
   7	  55
   7	  56
   7	  59
   7	  71
   7	  73
   7	  91
   7	  97
   7	 103
   7	 107
   8	   9
   8	  17
   8	  30
   8	  53
   8	  54
   8	  84
   8	  94
   8	 105
   8	 107
   8	 114
   8	 115
   8	 119
   9	  21
   9	  38
   9	  50
   9	  57
   9	  64
   9	  65
   9	  87
   9	  90
   9	  92
   9	 105
   9	 110
   9	 112
   9	 116
   9	 118
  10	  19
  10	  28
  10	  41
  10	  49
  10	  53
  10	  59
  11	  39
  11	  40
  11	  52
  11	  57
  11	  68
  11	  70
  11	  72
  11	  82
  11	  93
  12	  39
  12	  41
  12	  54
  12	  60
  12	  89
  13	  14
  13	  22
  13	  25
  13	  26
  13	  46
  13	  54
  13	  62
  13	  80
  13	  86
  13	 113
  13	 116
  14	  38
  14	  48
  14	  63
  14	  78
  14	  80
  14	  84
  14	  92
  14	 100
  14	 109
  14	 110
  14	 113
  14	 117
  14	 118
  15	  16
  15	  24
  15	  39
  15	  46
  15	  47
  15	  51
  15	  54
  15	  75
  15	  80
  15	  95
  16	  29
  16	  31
  16	  52
  16	  53
  16	  69
  16	 106
  17	  29
  17	  36
  17	  37
  17	  38
  17	  41
  17	  64
  17	  68
  17	  90
  17	  94
  17	 101
  18	  28
  18	  41
  18	  42
  18	  55
  18	  61
  18	  65
  18	  71
  18	  76
  18	  99
  18	 108
  18	 117
  19	  21
  19	  36
  19	  39
  19	  44
  19	  46
  19	  54
  19	  61
  19	  64
  19	  68
  19	  75
  19	  81
  19	  86
  19	 108
  19	 117
  20	  29
  20	  31
  20	  52
  20	  57
  20	  63
  20	  71
  20	  78
  20	  80
  20	  94
  20	  95
  20	 100
  20	 102
  20	 112
  21	  26
  21	  31
  21	  33
  21	  41
  21	  46
  21	  47
  21	  50
  21	  51
  21	  52
  21	  62
  21	  71
  21	  74
  21	  76
  21	  93
  21	 110
  22	  32
  22	  39
  22	  44
  22	  46
  22	  47
  22	  48
  22	  57
  22	  62
  22	  93
  22	  98
  22	 102
  22	 106
  23	  33
  23	  80
  23	  81
  23	  86
  23	 105
  23	 109
  23	 114
  24	  36
  24	  45
  24	  57
  24	  62
  24	 118
  25	  32
  25	  34
  25	  41
  25	  51
  25	  60
  25	  65
  25	  77
  25	  96
  25	  97
  25	  99
  26	  34
  26	  51
  26	  58
  26	  69
  26	  70
  26	  88
  26	 109
  26	 114
  27	  73
  27	  75
  27	  86
  27	  87
  27	 100
  27	 101
  27	 103
  27	 105
  27	 112
  28	  34
  28	  45
  28	  48
  28	  63
  28	  67
  28	  70
  28	  81
  28	  85
  28	 104
  28	 111
  28	 112
  29	  41
  29	  52
  29	  62
  29	  73
  29	  83
  29	  85
  29	  87
  29	  95
  29	 100
  29	 104
  29	 115
  30	  38
  30	  48
  30	  53
  30	  96
  30	 106
  31	  32
  31	 107
  31	 115
  32	  35
  32	  47
  32	  53
  32	  55
  32	  63
  32	 112
  33	  53
  33	  76
  33	  87
  33	  96
  33	  98
  33	  99
  33	 105
  33	 113
  33	 115
  34	  60
  34	  64
  34	  69
  34	  72
  34	  82
  34	  83
  34	 108
  34	 110
  35	  40
  35	  43
  35	  51
  35	  73
  35	  84
  35	  99
  35	 103
  35	 104
  35	 112
  36	  37
  36	  55
  36	  66
  36	  67
  36	  90
  36	  92
  36	  97
  36	 102
  37	  42
  37	  52
  37	  55
  37	  66
  37	  70
  37	  76
  37	  94
  37	  97
  38	  39
  38	  68
  38	  79
  38	  82
  38	  91
  38	 106
  38	 109
  38	 115
  39	  42
  39	  60
  39	  63
  39	  64
  39	  85
  39	 103
  39	 105
  40	  45
  40	  48
  40	  60
  40	  87
  40	  91
  40	 111
  41	  43
  41	  44
  41	  48
  41	  49
  41	  66
  41	  85
  41	  86
  41	  88
  41	 115
  41	 119
  42	  51
  42	  73
  42	  91
  42	 115
  43	  76
  43	  80
  43	  84
  43	  97
  43	 104
  43	 107
  44	  47
  44	  52
  44	  75
  44	  89
  44	  92
  44	 101
  45	  61
  45	  74
  45	  81
  45	 109
  45	 116
  46	  52
  46	  73
  46	  76
  46	  80
  46	  82
  46	  93
  46	  99
  46	 105
  46	 106
  47	  56
  47	  68
  47	  73
  47	  87
  47	  95
  47	 101
  47	 112
  47	 117
  48	  68
  48	  70
  48	  74
  48	  80
  48	  94
  48	  99
  48	 114
  48	 116
  49	  52
  49	  54
  49	  59
  49	  65
  49	  66
  49	  76
  49	  90
  49	  96
  49	  97
  49	 101
  50	  51
  50	  62
  50	  92
  50	 114
  51	  55
  51	  64
  51	  71
  51	  72
  51	  73
  51	  76
  51	  83
  51	  98
  51	 104
  51	 115
  52	  72
  52	  75
  52	  81
  52	  89
  52	  92
  52	 114
  53	  84
  53	 109
  53	 118
  54	  62
  54	  71
  54	  76
  54	  79
  54	 104
  54	 107
  54	 110
  54	 115
  55	  71
  55	  78
  55	  79
  55	  88
  55	 115
  56	  58
  56	  61
  56	  71
  56	  78
  56	 101
  56	 105
  56	 109
  56	 113
  56	 115
  57	  63
  57	  64
  57	  66
  57	  85
  57	 103
  57	 104
  57	 118
  58	  97
  58	 108
  59	  62
  59	  74
  59	  77
  59	  80
  59	  90
  60	  62
  60	  75
  60	  77
  60	  89
  60	 100
  60	 106
  60	 108
  60	 111
  60	 115
  61	  81
  61	  91
  61	  95
  61	 109
  61	 113
  62	  69
  62	  71
  62	  72
  62	  73
  62	  77
  62	  90
  63	  74
  63	  80
  63	  85
  63	  90
  63	  95
  63	 102
  64	  75
  64	  79
  64	  97
  64	 102
  64	 105
  65	  75
  65	  84
  65	  86
  65	  97
  65	 111
  66	  73
  66	  74
  66	  90
  66	  93
  66	 100
  66	 107
  66	 110
  67	 109
  67	 118
  68	  75
  68	  83
  68	  85
  68	 100
  68	 113
  69	  71
  69	  91
  69	  94
  69	  97
  69	 108
  69	 118
  70	  73
  70	  74
  70	  89
  70	  97
  70	  99
  71	  82
  71	  96
  71	  97
  71	 102
  71	 107
  71	 108
  71	 113
  72	  96
  72	 107
  72	 115
  72	 116
  72	 117
  73	  80
  73	  81
  73	  88
  73	  96
  73	 102
  73	 109
  73	 114
  73	 117
  74	  76
  74	  79
  74	  87
  74	 100
  74	 109
  74	 118
  75	  81
  75	 117
  76	  89
  76	  99
  76	 103
  76	 104
  76	 110
  77	  93
  77	  94
  77	 101
  77	 102
  77	 109
  77	 111
  78	  79
  78	  98
  78	 100
  78	 103
  79	  82
  79	  86
  79	 107
  79	 118
  80	  81
  80	  87
  80	  90
  80	  96
  80	 108
  81	  98
  81	 108
  81	 109
  81	 110
  81	 113
  82	  90
  82	 117
  83	  88
  83	  90
  83	 108
  83	 113
  84	 104
  84	 119
  85	  90
  85	  95
  85	  97
  85	 105
  85	 113
  85	 114
  87	  90
  87	  93
  87	  94
  87	  99
  87	 103
  87	 109
  87	 111
  87	 115
  87	 118
  88	  94
  88	 100
  89	 105
  89	 114
  89	 117
  91	  97
  92	 102
  92	 109
  92	 110
  93	  95
  93	  99
  93	 104
  93	 110
  93	 111
  93	 114
  93	 119
  94	 103
  94	 116
  96	 100
  96	 104
  96	 115
  97	 103
  98	 100
  98	 102
 100	 105
 100	 108
 100	 109
 101	 113
 102	 103
 102	 110
 102	 112
 103	 109
 103	 114
 105	 113
 105	 119
 107	 108
 107	 117
 108	 115
 110	 115
 111	 114
 111	 119
 112	 113
 113	 114
 113	 117
 114	 115
 114	 119
 115	 116
;
